4 
5  13 35 51 
6  11 23 36 51 
7  06 24 39 54 
8  09 24 39 54 
9  09 24 39 54 
10  09 24 39 54 
11  09 24 39 54 
12  09 24 39 54 
13  09 24 39 54 
14  09 24 39 54 
15  09 24 39 54 
16  09 24 39 54 
17  09 24 39 54 
18  09 24 39 55 
19  11 26 41 56 
20  11 26 41 56 
21  11 26 41 56 
22  10 25 40 55 
23  10 
0 
